000 000 000 000 000 001 000 000 -99 -99 -99 -99 -99 -99 -99 -99 -99 -99 000 000 000 000 -99 -99 000 000 -99 -99 -99 -99 -99
-99 000 000 000 000 000 000 000 -99 -99 -99 -99 -99 -99 -99 -99 -99 -99 -99 000 000 000 000 -99 000 000 -99 -99 -99 -99 -99
-99 000 000 000 000 000 000 000 -99 -99 -99 -99 -99 -99 000 000 -99 -99 -99 -99 000 000 000 -99 000 000 000 -99 -99 -99 -99
000 000 000 000 000 000 000 000 000 -99 -99 000 000 -99 000 000 -99 -99 -99 -99 000 000 000 000 000 000 000 -99 -99 -99 -99
000 000 000 000 000 000 000 000 000 000 -99 000 000 000 -99 000 000 -99 -99 -99 000 000 000 000 000 000 -99 -99 -99 -99 -99
000 000 000 000 000 000 000 000 000 000 000 -99 000 000 -99 000 000 000 -99 -99 000 000 -99 000 000 000 -99 -99 -99 -99 -99
000 000 000 000 000 000 000 000 000 000 000 000 -99 000 -99 -99 000 000 -99 -99 -99 000 -99 000 000 000 -99 -99 -99 -99 -99
000 000 000 000 000 000 -99 000 000 000 000 000 -99 000 -99 -99 000 000 000 -99 000 -99 -99 000 000 000 -99 -99 -99 -99 000
000 000 000 000 000 000 -99 000 000 000 000 000 -99 -99 -99 -99 000 000 000 -99 000 -99 -99 000 000 -99 -99 -99 000 000 000
000 000 000 000 000 000 000 000 000 000 000 000 -99 -99 000 000 -99 000 000 000 000 000 -99 000 000 000 -99 000 000 000 000
000 000 000 000 000 -99 000 000 000 -99 000 000 000 -99 -99 000 000 000 000 000 -99 000 -99 000 000 -99 -99 000 000 000 000
000 000 000 000 000 000 000 000 000 000 000 000 -99 -99 -99 000 000 000 000 000 000 000 -99 000 000 000 000 000 000 000 000
000 000 000 000 000 000 000 000 -99 -99 000 000 -99 -99 -99 000 000 000 000 000 000 -99 -99 -99 000 000 000 000 000 000 000
000 000 000 000 000 000 000 000 -99 -99 000 000 000 -99 -99 -99 000 000 000 000 000 -99 -99 000 000 000 000 000 000 000 000
000 000 000 000 000 000 000 -99 -99 -99 -99 -99 -99 000 -99 000 000 -99 -99 -99 -99 -99 -99 000 000 000 000 000 000 -99 000
000 000 000 000 000 000 000 000 000 -99 -99 -99 -99 000 000 -99 -99 -99 -99 -99 -99 -99 -99 000 000 000 000 000 000 -99 -99
000 -99 -99 -99 -99 000 000 000 000 -99 -99 -99 -99 -99 000 -99 -99 000 -99 -99 -99 -99 000 000 000 000 000 000 000 000 -99
000 -99 000 -99 -99 -99 -99 000 000 -99 -99 -99 -99 -99 -99 -99 000 000 -99 -99 -99 -99 000 -99 000 000 000 000 -99 000 -99
000 000 000 000 -99 -99 -99 000 000 -99 -99 -99 -99 -99 -99 000 000 000 -99 -99 -99 000 000 000 000 000 000 000 -99 -99 -99
000 000 000 000 -99 000 000 000 000 000 -99 -99 -99 -99 -99 -99 000 000 -99 -99 000 000 000 -99 -99 -99 -99 -99 -99 -99 -99
003 001 001 000 000 000 000 000 000 000 -99 -99 -99 -99 -99 -99 000 000 000 000 000 000 000 -99 -99 -99 -99 -99 -99 -99 -99
004 002 002 000 000 000 000 000 000 000 -99 -99 -99 -99 -99 -99 000 000 000 000 000 000 000 -99 -99 -99 -99 -99 -99 -99 -99
001 000 000 000 000 000 -99 000 000 000 -99 -99 -99 000 000 -99 000 000 000 000 000 000 000 -99 -99 -99 -99 -99 -99 -99 -99
000 000 000 000 000 -99 -99 000 000 000 -99 -99 -99 000 000 000 000 000 000 000 000 000 000 -99 -99 -99 -99 -99 -99 -99 -99
000 001 000 000 000 000 -99 000 000 000 000 -99 -99 000 000 000 000 000 000 000 000 -99 000 -99 -99 -99 -99 -99 -99 -99 -99
000 000 000 000 000 000 000 000 000 000 000 -99 000 000 000 000 000 000 000 000 000 -99 000 -99 -99 -99 -99 -99 -99 -99 -99
000 000 000 000 000 000 000 000 000 000 000 000 000 000 000 000 000 000 000 000 000 000 000 -99 -99 -99 -99 -99 -99 -99 -99
000 000 -99 000 000 000 000 000 000 000 000 000 001 000 000 000 000 000 000 000 000 000 000 -99 -99 -99 -99 -99 -99 -99 -99
000 000 -99 -99 000 000 000 000 000 000 000 000 003 000 000 000 000 000 000 000 000 000 -99 -99 -99 -99 -99 -99 -99 -99 -99
000 000 000 -99 000 000 000 000 000 000 000 000 003 000 000 000 000 000 000 000 000 000 -99 -99 -99 000 -99 -99 -99 -99 -99
000 000 000 000 000 000 000 000 000 000 000 001 000 000 000 000 000 000 000 000 -99 000 -99 -99 -99 000 000 -99 -99 -99 -99
000 000 000 000 000 000 000 000 000 -99 -99 -99 000 000 000 000 000 000 000 -99 -99 000 -99 000 000 000 000 -99 -99 -99 000
000 000 000 000 000 000 000 000 000 -99 -99 -99 -99 -99 000 -99 000 000 000 -99 -99 -99 000 000 000 000 -99 -99 000 000 000
000 000 000 000 000 000 000 000 000 000 -99 -99 000 000 000 -99 000 000 -99 -99 -99 000 000 000 000 000 -99 000 000 000 000
000 000 000 000 000 000 000 000 000 000 000 000 000 000 000 000 000 000 -99 -99 000 -99 000 000 000 000 -99 000 000 000 000
000 000 000 000 000 -99 000 000 000 000 000 000 000 000 000 000 000 -99 000 -99 000 -99 000 000 000 000 -99 000 000 001 000
000 000 -99 000 000 -99 000 000 000 000 001 002 003 005 000 000 000 000 -99 -99 000 -99 -99 -99 000 000 000 000 000 000 000
000 000 000 000 000 -99 000 000 000 002 008 024 034 034 009 000 000 000 000 -99 -99 -99 -99 000 000 000 000 -99 000 000 000
000 000 001 000 000 000 000 000 001 002 012 025 039 029 008 000 000 000 -99 -99 -99 -99 000 000 000 000 -99 -99 000 000 000
002 000 002 000 000 -99 000 000 000 002 006 011 024 019 004 000 000 000 -99 -99 000 -99 -99 000 000 000 000 -99 000 000 000
008 000 001 000 000 000 000 000 000 002 003 005 013 021 014 000 000 -99 -99 -99 000 -99 -99 000 -99 000 000 -99 000 -99 -99
003 000 000 000 -99 -99 000 000 001 001 002 001 005 031 002 000 -99 -99 -99 000 000 -99 -99 000 000 000 -99 -99 -99 -99 -99
004 000 000 -99 -99 -99 000 000 000 001 001 000 005 010 000 000 000 000 000 000 -99 -99 -99 000 000 000 -99 -99 -99 -99 -99
001 000 -99 -99 -99 -99 000 000 000 000 000 001 002 003 000 000 000 000 000 000 -99 -99 -99 -99 000 000 -99 -99 000 -99 -99
000 -99 -99 -99 -99 -99 000 000 000 000 000 000 001 000 000 000 000 000 000 000 -99 -99 -99 000 000 -99 -99 -99 000 -99 -99
000 -99 -99 -99 -99 000 000 000 000 000 000 000 000 000 000 000 000 000 000 000 -99 -99 -99 000 000 -99 -99 000 -99 -99 -99
000 -99 -99 -99 -99 000 000 000 -99 000 000 000 000 000 000 000 000 000 000 000 -99 -99 000 000 -99 -99 000 -99 -99 -99 -99
-99 -99 -99 -99 -99 -99 -99 -99 -99 000 -99 000 -99 000 000 000 000 000 000 -99 000 000 000 000 -99 -99 000 -99 -99 -99 -99
-99 -99 -99 -99 -99 -99 -99 -99 -99 -99 -99 -99 -99 -99 000 000 000 001 000 -99 000 000 000 -99 -99 000 000 000 -99 -99 -99
-99 -99 -99 -99 -99 -99 -99 -99 -99 000 000 -99 -99 -99 -99 000 001 001 000 000 000 000 -99 -99 -99 000 000 -99 -99 -99 -99
-99 -99 -99 -99 -99 -99 -99 -99 -99 000 000 -99 -99 -99 -99 000 001 001 000 000 000 000 -99 -99 -99 -99 -99 -99 -99 -99 -99
-99 -99 -99 -99 -99 -99 -99 -99 000 000 -99 -99 -99 -99 -99 000 000 000 000 000 -99 -99 -99 -99 -99 -99 -99 -99 -99 -99 -99
-99 -99 -99 -99 -99 -99 -99 -99 -99 000 000 -99 -99 -99 000 000 000 000 000 000 -99 -99 -99 -99 -99 -99 -99 -99 -99 -99 -99
-99 -99 -99 -99 -99 -99 000 001 000 000 000 000 -99 -99 -99 -99 -99 000 000 -99 -99 -99 -99 -99 -99 -99 -99 -99 -99 -99 -99
-99 -99 -99 -99 -99 000 000 001 000 001 000 000 -99 -99 -99 -99 -99 000 000 -99 -99 -99 -99 -99 -99 -99 -99 -99 -99 -99 -99
